Gurobi Optimizer version 9.1.2 build v9.1.2rc0 (linux64)
Thread count: 36 physical cores, 72 logical processors, using up to 32 threads
Optimize a model with 12 rows, 57 columns and 590 nonzeros
Model fingerprint: 0xf32eec78
Model has 47 quadratic constraints
Coefficient statistics:
  Matrix range     [2e-05, 3e+00]
  QMatrix range    [1e+00, 1e+00]
  QLMatrix range   [1e+00, 1e+00]
  Objective range  [8e-03, 7e-01]
  Bounds range     [1e+00, 1e+00]
  RHS range        [1e+00, 1e+00]
Presolve removed 9 rows and 0 columns

Continuous model is non-convex -- solving as a MIP.

Presolve removed 9 rows and 0 columns
Presolve time: 0.00s
Presolved: 189 rows, 57 columns, 443 nonzeros
Presolved model has 47 bilinear constraint(s)
Variable types: 57 continuous, 0 integer (0 binary)

Root relaxation: objective -1.743721e+00, 44 iterations, 0.00 seconds

    Nodes    |    Current Node    |     Objective Bounds      |     Work
 Expl Unexpl |  Obj  Depth IntInf | Incumbent    BestBd   Gap | It/Node Time

     0     0   -1.74372    0   38          -   -1.74372      -     -    0s
H    0     0                       0.6147548   -1.74372   384%     -    0s
     0     0   -1.64739    0    1    0.61475   -1.64739   368%     -    0s
H    0     0                      -1.6450460   -1.64739  0.14%     -    0s
     0     0     cutoff    0        -1.64505   -1.64505  0.00%     -    0s

Cutting planes:
  RLT: 25
  BQP: 3

Explored 1 nodes (76 simplex iterations) in 0.01 seconds
Thread count was 32 (of 72 available processors)

Solution count 2: -1.64505 0.614755 
No other solutions better than -1.64505

Optimal solution found (tolerance 1.00e-04)
Best objective -1.645045978473e+00, best bound -1.645045978473e+00, gap 0.0000%

User-callback calls 78, time in user-callback 0.00 sec
Gurobi Optimizer version 9.1.2 build v9.1.2rc0 (linux64)
Thread count: 36 physical cores, 72 logical processors, using up to 32 threads
Optimize a model with 24 rows, 120 columns and 2480 nonzeros
Model fingerprint: 0xbd9890b9
Model has 100 quadratic constraints
Coefficient statistics:
  Matrix range     [8e-06, 4e+00]
  QMatrix range    [1e+00, 1e+00]
  QLMatrix range   [1e+00, 1e+00]
  Objective range  [5e-03, 1e+00]
  Bounds range     [1e+00, 1e+00]
  RHS range        [1e+00, 1e+00]
Presolve removed 18 rows and 0 columns

Continuous model is non-convex -- solving as a MIP.

Presolve removed 18 rows and 0 columns
Presolve time: 0.00s
Presolved: 406 rows, 120 columns, 1113 nonzeros
Presolved model has 100 bilinear constraint(s)
Variable types: 120 continuous, 0 integer (0 binary)

Root relaxation: objective -7.737660e+00, 146 iterations, 0.00 seconds

    Nodes    |    Current Node    |     Objective Bounds      |     Work
 Expl Unexpl |  Obj  Depth IntInf | Incumbent    BestBd   Gap | It/Node Time

     0     0   -7.73766    0   93          -   -7.73766      -     -    0s
H    0     0                       2.0057889   -7.73766   486%     -    0s
     0     0   -5.48507    0  100    2.00579   -5.48507   373%     -    0s
H    0     0                      -0.0841633   -5.48507  6417%     -    0s
     0     0   -5.46695    0  100   -0.08416   -5.46695  6396%     -    0s
     0     0   -4.93852    0   90   -0.08416   -4.93852  5768%     -    0s
H    0     0                      -1.0934916   -4.93852   352%     -    0s
     0     0   -4.87954    0  100   -1.09349   -4.87954   346%     -    0s
     0     0   -4.66781    0  100   -1.09349   -4.66781   327%     -    0s
H    0     0                      -1.5001158   -4.66781   211%     -    0s
     0     0   -4.64078    0  100   -1.50012   -4.64078   209%     -    0s
     0     0   -4.59672    0  100   -1.50012   -4.59672   206%     -    0s
     0     0   -4.58896    0  100   -1.50012   -4.58896   206%     -    0s
     0     0   -4.57803    0  100   -1.50012   -4.57803   205%     -    0s
     0     0   -4.57664    0  100   -1.50012   -4.57664   205%     -    0s
     0     0   -4.56856    0  100   -1.50012   -4.56856   205%     -    0s
     0     0   -4.56063    0  100   -1.50012   -4.56063   204%     -    0s
     0     0   -4.55717    0  100   -1.50012   -4.55717   204%     -    0s
H    0     0                      -1.9446239   -4.55717   134%     -    0s
H    0     0                      -3.0248734   -4.55717  50.7%     -    0s
H    0     0                      -3.0253989   -4.55717  50.6%     -    0s
     0     2   -4.55717    0  100   -3.02540   -4.55717  50.6%     -    0s
*  933   800              32      -3.0349906   -4.09778  35.0%  29.8    0s
*  947   800              31      -3.0991866   -4.09778  32.2%  29.5    0s
*  949   800              32      -3.0993271   -4.09778  32.2%  29.5    0s
*  952   800              34      -3.0993348   -4.09778  32.2%  29.4    0s
* 1097   936              37      -3.2368433   -4.09778  26.6%  28.2    0s
* 1295  1040              25      -3.6483249   -4.09778  12.3%  26.5    0s
* 1296  1040              25      -3.6483249   -4.09778  12.3%  26.5    0s
* 2055  1104              21      -3.6653205   -4.03099  10.0%  22.8    0s
* 2442  1298              24      -3.7702298   -3.86519  2.52%  21.2    0s
* 2800  1001              24      -3.7712267   -3.77423  0.08%  19.4    0s
* 2802  1001              23      -3.7714453   -3.77423  0.07%  19.3    0s
* 2810  1001              27      -3.7717440   -3.77361  0.05%  19.3    0s
* 3038  1001              25      -3.7719019   -3.77324  0.04%  18.1    0s
* 3040  1001              25      -3.7719146   -3.77324  0.04%  18.1    0s
* 3301   404              24      -3.7720075   -3.77216  0.00%  16.8    0s
* 3302   404              24      -3.7720079   -3.77216  0.00%  16.8    0s

Cutting planes:
  RLT: 82
  BQP: 13
  PSD: 20

Explored 3884 nodes (56338 simplex iterations) in 0.73 seconds
Thread count was 32 (of 72 available processors)

Solution count 10: -3.77201 -3.77201 -3.77191 ... -3.64832
No other solutions better than -3.77201

Optimal solution found (tolerance 1.00e-04)
Best objective -3.772007946500e+00, best bound -3.772007946500e+00, gap 0.0000%

User-callback calls 8085, time in user-callback 0.00 sec



objective value: -3.772007946499862
objective bound: -3.772007946499862
x_opt: [0.0, 1.0, 1.0, 0.0, 1.0, 0.2843826168382186, 0.05327049741985276, 0.0, 1.0, 0.30850272497764625, 0.0, 0.0, 0.0, 1.0, 0.0, 0.8634269383858955, 1.0, 0.9762531577892168, 0.0, 1.0]
GUROBI solution time: 0.7287290096282959




